
Gurobi 9.5.0 (linux64) logging started Thu Dec  7 22:26:05 2023

Set parameter LogFile to value "/lustre1/scratch/348/vsc34888/JointResearch/05.Models/06.Benchmarking/B.Operation_cost/RTS24_mod1_ByStages_nc10/openStarNet_RTS24_mod1_ByStages_nc10.log"
Set parameter Method to value 2
Set parameter MIPFocus to value 1
Set parameter Presolve to value 2
Set parameter RINS to value 100
Set parameter MIPGap to value 0.01
Set parameter Threads to value 36
Set parameter TimeLimit to value 259200
Set parameter IterationLimit to value 760000000
Gurobi Optimizer version 9.5.0 build v9.5.0rc5 (linux64)
Thread count: 36 physical cores, 36 logical processors, using up to 36 threads
Optimize a model with 4263 rows, 2900 columns and 11622 nonzeros
Model fingerprint: 0xf6fd62a2
Variable types: 2879 continuous, 21 integer (21 binary)
Coefficient statistics:
  Matrix range     [8e-03, 2e+03]
  Objective range  [1e+00, 1e+00]
  Bounds range     [4e-05, 2e+00]
  RHS range        [4e-05, 1e+00]
Presolve removed 2539 rows and 1460 columns
Presolve time: 0.02s
Presolved: 1724 rows, 1440 columns, 6227 nonzeros
Variable types: 1419 continuous, 21 integer (21 binary)
Found heuristic solution: objective 97.6331530
Root relaxation presolve removed 7 rows and 7 columns
Root relaxation presolved: 1717 rows, 1433 columns, 6213 nonzeros

Root barrier log...

Ordering time: 0.02s

Barrier statistics:
 AA' NZ     : 3.271e+04
 Factor NZ  : 1.809e+05 (roughly 3 MB of memory)
 Factor Ops : 2.939e+07 (less than 1 second per iteration)
 Threads    : 36

                  Objective                Residual
Iter       Primal          Dual         Primal    Dual     Compl     Time
   0   6.94045227e+05 -4.90646369e+07  5.23e+00 6.54e+02  3.47e+04     0s
   1   6.49666031e+04 -1.26007042e+07  5.15e-01 1.38e-10  4.36e+03     0s
   2   2.26659035e+04 -9.14524270e+06  1.55e-01 1.01e-10  2.57e+03     0s
   3   7.29986568e+03 -7.77026083e+05  6.54e-03 3.65e-11  1.97e+02     0s
   4   4.99899863e+03 -2.92532955e+04  1.34e-13 9.45e-11  8.47e+00     0s
   5   7.30239394e+02 -4.61944016e+03  2.87e-13 1.99e-11  1.32e+00     0s
   6   3.06873786e+02 -1.42707773e+03  1.49e-13 6.26e-12  4.29e-01     0s
   7   1.85494623e+02 -4.44608989e+02  7.02e-14 3.64e-12  1.56e-01     0s
   8   1.29376444e+02 -1.64466168e+02  9.26e-14 3.64e-12  7.27e-02     0s
   9   1.00740688e+02 -6.19612935e+01  1.64e-13 3.64e-12  4.02e-02     0s
  10   7.20772210e+01  3.31258597e+01  7.08e-13 1.09e-11  9.63e-03     0s
  11   5.74493044e+01  4.58865399e+01  7.93e-13 7.28e-12  2.86e-03     0s
  12   5.28378358e+01  4.89241126e+01  2.43e-12 1.82e-12  9.68e-04     0s
  13   5.14496971e+01  5.02221234e+01  1.11e-11 3.64e-12  3.04e-04     0s
  14   5.10203326e+01  5.06438329e+01  7.65e-12 7.28e-12  9.31e-05     0s
  15   5.08495056e+01  5.07293936e+01  6.46e-12 3.64e-12  2.97e-05     0s
  16   5.07680627e+01  5.07627166e+01  7.74e-12 7.28e-12  1.32e-06     0s
  17   5.07649696e+01  5.07648775e+01  1.00e-11 3.64e-12  2.28e-08     0s
  18   5.07649657e+01  5.07649646e+01  4.19e-11 3.64e-12  2.62e-10     0s
  19   5.07649654e+01  5.07649654e+01  3.04e-12 7.28e-12  1.17e-12     0s

Barrier solved model in 19 iterations and 0.27 seconds (0.07 work units)
Optimal objective 5.07649654e+01


Root relaxation: objective 5.076497e+01, 202 iterations, 0.24 seconds (0.04 work units)

    Nodes    |    Current Node    |     Objective Bounds      |     Work
 Expl Unexpl |  Obj  Depth IntInf | Incumbent    BestBd   Gap | It/Node Time

     0     0   50.76497    0    6   97.63315   50.76497  48.0%     -    0s
     0     0   51.21939    0    8   97.63315   51.21939  47.5%     -    0s
H    0     0                      85.0377858   51.21939  39.8%     -    0s
     0     0   51.22821    0    8   85.03779   51.22821  39.8%     -    0s
H    0     0                      84.6742244   51.22821  39.5%     -    0s
     0     0   51.71093    0    6   84.67422   51.71093  38.9%     -    0s
H    0     0                      81.1169041   51.71093  36.3%     -    0s
     0     0   51.89704    0    6   81.11690   51.89704  36.0%     -    0s
H    0     0                      78.0982976   51.89704  33.5%     -    0s
     0     0   53.65344    0    6   78.09830   53.65344  31.3%     -    0s
H    0     0                      68.0120400   53.65344  21.1%     -    0s
     0     2   53.65344    0    6   68.01204   53.65344  21.1%     -    0s
H  136   132                      67.6964589   55.43709  18.1%  45.1    1s
H  156   132                      67.5872954   55.43709  18.0%  45.6    1s
H  163   132                      67.2293959   55.43709  17.5%  44.6    1s

Cutting planes:
  Gomory: 3
  MIR: 30

Explored 1582 nodes (49103 simplex iterations) in 3.31 seconds (2.95 work units)
Thread count was 36 (of 36 available processors)

Solution count 9: 67.2294 67.5873 67.6965 ... 97.6332

Optimal solution found (tolerance 1.00e-02)
Best objective 6.722939591222e+01, best bound 6.722939591222e+01, gap 0.0000%

Gurobi 9.5.0 (linux64) logging started Thu Dec  7 22:26:09 2023

Set parameter LogFile to value "/lustre1/scratch/348/vsc34888/JointResearch/05.Models/06.Benchmarking/B.Operation_cost/RTS24_mod1_ByStages_nc10/openStarNet_RTS24_mod1_ByStages_nc10.log"
Set parameter Method to value 2
Set parameter MIPFocus to value 1
Set parameter Presolve to value 2
Set parameter RINS to value 100
Set parameter MIPGap to value 0.01
Set parameter Threads to value 36
Set parameter TimeLimit to value 259200
Set parameter IterationLimit to value 760000000
No parameters matching 'relax_integrality' found
Gurobi Optimizer version 9.5.0 build v9.5.0rc5 (linux64)
Thread count: 36 physical cores, 36 logical processors, using up to 36 threads
Optimize a model with 4263 rows, 2879 columns and 10593 nonzeros
Model fingerprint: 0x27e9c9fe
Coefficient statistics:
  Matrix range     [8e-03, 2e+03]
  Objective range  [1e+00, 1e+00]
  Bounds range     [4e-05, 2e+00]
  RHS range        [4e-05, 2e+01]
Presolve removed 3567 rows and 1635 columns
Presolve time: 0.01s
Presolved: 696 rows, 1268 columns, 3008 nonzeros

Ordering time: 0.00s

Barrier statistics:
 AA' NZ     : 1.564e+03
 Factor NZ  : 6.200e+03 (roughly 1 MB of memory)
 Factor Ops : 8.790e+04 (less than 1 second per iteration)
 Threads    : 1

                  Objective                Residual
Iter       Primal          Dual         Primal    Dual     Compl     Time
   0   1.32519512e+06 -1.57581198e+07  6.76e+00 1.62e+03  5.84e+04     0s
   1   7.97597316e+04 -9.83467198e+06  3.94e-01 4.64e-11  6.99e+03     0s
   2   3.58322805e+04 -2.42562418e+06  1.17e-01 6.54e-11  1.47e+03     0s
   3   1.68902763e+04 -2.37740570e+05  1.59e-03 3.22e-11  1.21e+02     0s
   4   5.44859087e+03 -1.28571052e+04  5.65e-13 4.95e-11  8.63e+00     0s
   5   6.07556454e+02 -2.01604444e+03  3.40e-14 1.46e-11  1.24e+00     0s
   6   2.89864867e+02 -6.75672435e+02  1.49e-14 1.46e-11  4.55e-01     0s
   7   1.68283690e+02 -1.95633775e+02  1.31e-14 1.46e-11  1.72e-01     0s
   8   9.69866914e+01  1.34354885e+01  8.22e-15 7.28e-12  3.94e-02     0s
   9   8.12069428e+01  5.28567239e+01  1.97e-14 1.46e-11  1.34e-02     0s
  10   7.05372512e+01  6.47853385e+01  2.16e-13 1.46e-11  2.71e-03     0s
  11   6.78054265e+01  6.64529390e+01  5.03e-13 1.46e-11  6.38e-04     0s
  12   6.73164331e+01  6.69363831e+01  3.84e-12 7.28e-12  1.79e-04     0s
  13   6.72325879e+01  6.71623466e+01  6.34e-12 3.64e-12  3.31e-05     0s
  14   6.72301831e+01  6.72279259e+01  4.98e-14 1.46e-11  1.06e-06     0s
  15   6.72293967e+01  6.72293944e+01  9.07e-13 7.28e-12  1.07e-09     0s
  16   6.72293959e+01  6.72293959e+01  5.91e-13 1.46e-11  1.12e-15     0s

Barrier solved model in 16 iterations and 0.02 seconds (0.01 work units)
Optimal objective 6.72293959e+01

Crossover log...

     149 DPushes remaining with DInf 0.0000000e+00                 0s

      46 PPushes remaining with PInf 0.0000000e+00                 0s
       0 PPushes remaining with PInf 0.0000000e+00                 0s

  Push phase complete: Pinf 0.0000000e+00, Dinf 5.5688380e-13      0s

Iteration    Objective       Primal Inf.    Dual Inf.      Time
      49    6.7229396e+01   0.000000e+00   0.000000e+00      0s

Use crossover to convert LP symmetric solution to basic solution...
Crossover log...

      33 PPushes remaining with PInf 0.0000000e+00                 0s
       0 PPushes remaining with PInf 0.0000000e+00                 0s

  Push phase complete: Pinf 0.0000000e+00, Dinf 6.0294592e-13      0s

Iteration    Objective       Primal Inf.    Dual Inf.      Time
      85    6.7229396e+01   0.000000e+00   0.000000e+00      0s

Solved in 85 iterations and 0.02 seconds (0.01 work units)
Optimal objective  6.722939591e+01
